NAME: tsp30-7
TYPE: TSP
DIMENSION: 30
EDGE_WEIGHT_TYPE: EUC_2D
NODE_COORD_SECTION
0 13 74
1 44 80
2 83 71
3 37 73
4 9 3
5 1 33
6 23 80
7 70 4
8 52 50
9 85 3
10 19 62
11 81 15
12 26 0
13 17 86
14 63 12
15 1 19
16 28 18
17 99 72
18 45 1
19 0 81
20 13 0
21 61 48
22 4 87
23 53 77
24 43 94
25 71 39
26 69 69
27 77 79
28 66 56
29 17 41
EOF